
===== New CPLEX run =====
Instance: /home/yorig/tuner/mpils-tests/instances/miplib/easy/lotsize.mps
Config: /scratch/yorig/mpils-results-grid-seconds-5-no-mip-start/easy/16proc/seed-3/4_lotsize_seed-3_20260502_223218/iterated_local_search/run_3_worker_10/ils_config_7779486234809236820.prm
========================

Selected objective sense:  MINIMIZE
Selected objective  name:  R1921
Selected RHS        name:  B
Selected bound      name:  BOUND
Version identifier: 22.1.2.0 | 2024-11-26 | 0edbb82fd
CPXPARAM_Threads                                 8
CPXPARAM_Parallel                                1
CPXPARAM_MIP_Cuts_Cliques                        -1
CPXPARAM_MIP_Strategy_SubAlgorithm               3
CPXPARAM_MIP_Cuts_Implied                        -1
CPXPARAM_MIP_Cuts_GUBCovers                      -1
CPXPARAM_MIP_Limits_GomoryCand                   150
CPXPARAM_MIP_Cuts_Gomory                         -1
CPXPARAM_MIP_Cuts_MIRCut                         -1
CPXPARAM_Emphasis_MIP                            4
CPXPARAM_MIP_Strategy_BBInterval                 30
CPXPARAM_TimeLimit                               5
CPXPARAM_MIP_Limits_CutsFactor                   4
Tried aggregator 1 time.
MIP Presolve eliminated 595 rows and 0 columns.
MIP Presolve added 1190 rows and 0 columns.
MIP Presolve modified 10 coefficients.
Reduced MIP has 2515 rows, 2985 columns, and 7755 nonzeros.
Reduced MIP has 1195 binaries, 0 generals, 0 SOSs, and 0 indicators.
Presolve time = 0.00 sec. (4.53 ticks)
Probing fixed 0 vars, tightened 5487 bounds.
Probing time = 0.01 sec. (18.38 ticks)
Tried aggregator 2 times.
Detecting symmetries...
MIP Presolve modified 1206 coefficients.
Aggregator did 10 substitutions.
Reduced MIP has 2505 rows, 2975 columns, and 7735 nonzeros.
Reduced MIP has 1195 binaries, 0 generals, 0 SOSs, and 0 indicators.
Presolve time = 0.00 sec. (6.66 ticks)
Probing fixed 0 vars, tightened 2401 bounds.
Probing time = 0.00 sec. (6.41 ticks)
Clique table members: 190.
MIP emphasis: hidden feasible solutions.
MIP search method: dynamic search.
Parallel mode: deterministic, using up to 8 threads.
Root relaxation solution time = 0.01 sec. (7.84 ticks)

        Nodes                                         Cuts/
   Node  Left     Objective  IInf  Best Integer    Best Bound    ItCnt     Gap

      0     0   348385.3466   472                 348385.3466      882         
      0     0   574829.7845   433                   Cuts: 726     4816         
      0     0   828863.4392   699                   Cuts: 726    13525         
*     0+    0                       1.39622e+07   828863.4392            94.06%
*     0+    0                       1.38961e+07   828863.4392            94.04%
      0     0   951765.4630   723   1.38961e+07     Cuts: 726    24309   93.15%
      0     0  1019590.7011   758   1.38961e+07     Cuts: 649    36444   92.66%
      0     0  1069737.1106   734   1.38961e+07     Cuts: 580    48704   92.30%
Detecting symmetries...
      0     0  1093828.1236   803   1.38961e+07     Cuts: 438    61766   92.13%
      0     0  1110846.8385   818   1.38961e+07     Cuts: 360    74924   92.01%
      0     0  1123431.1674   826   1.38961e+07     Cuts: 319    88646   91.92%

Cover cuts applied:  10
Flow cuts applied:  743
Mixed integer rounding cuts applied:  476
Flow path cuts applied:  85
Multi commodity flow cuts applied:  40

Root node processing (before b&c):
  Real time             =    5.00 sec. (7172.80 ticks)
Parallel b&c, 8 threads:
  Real time             =    0.00 sec. (0.00 ticks)
  Sync time (average)   =    0.00 sec.
  Wait time (average)   =    0.00 sec.
                          ------------
Total (root+branch&cut) =    5.00 sec. (7172.80 ticks)
Gap: 91.92%
Upper bound: 1.38961e+07
Lower bound: 1.12343e+06
End of CPLEX run. Time: 5.0039 seconds

===== New CPLEX run =====
Instance: /home/yorig/tuner/mpils-tests/instances/miplib/easy/lotsize.mps
Config: /scratch/yorig/mpils-results-grid-seconds-5-no-mip-start/easy/16proc/seed-3/4_lotsize_seed-3_20260502_223218/iterated_local_search/run_3_worker_10/ils_config_3115812437848124889.prm
========================

Selected objective sense:  MINIMIZE
Selected objective  name:  R1921
Selected RHS        name:  B
Selected bound      name:  BOUND
Version identifier: 22.1.2.0 | 2024-11-26 | 0edbb82fd
CPXPARAM_Threads                                 8
CPXPARAM_Parallel                                1
CPXPARAM_MIP_Cuts_Cliques                        -1
CPXPARAM_MIP_Strategy_SubAlgorithm               3
CPXPARAM_MIP_Cuts_Implied                        -1
CPXPARAM_MIP_Cuts_GUBCovers                      2
CPXPARAM_MIP_Limits_GomoryCand                   150
CPXPARAM_MIP_Cuts_Gomory                         -1
CPXPARAM_MIP_Cuts_MIRCut                         -1
CPXPARAM_Emphasis_MIP                            4
CPXPARAM_MIP_Strategy_BBInterval                 30
CPXPARAM_TimeLimit                               5
CPXPARAM_MIP_Limits_CutsFactor                   4
Tried aggregator 1 time.
MIP Presolve eliminated 595 rows and 0 columns.
MIP Presolve added 1190 rows and 0 columns.
MIP Presolve modified 10 coefficients.
Reduced MIP has 2515 rows, 2985 columns, and 7755 nonzeros.
Reduced MIP has 1195 binaries, 0 generals, 0 SOSs, and 0 indicators.
Presolve time = 0.00 sec. (4.53 ticks)
Probing fixed 0 vars, tightened 5487 bounds.
Probing time = 0.01 sec. (18.38 ticks)
Tried aggregator 2 times.
Detecting symmetries...
MIP Presolve modified 1206 coefficients.
Aggregator did 10 substitutions.
Reduced MIP has 2505 rows, 2975 columns, and 7735 nonzeros.
Reduced MIP has 1195 binaries, 0 generals, 0 SOSs, and 0 indicators.
Presolve time = 0.00 sec. (6.66 ticks)
Probing fixed 0 vars, tightened 2401 bounds.
Probing time = 0.00 sec. (6.41 ticks)
Clique table members: 190.
MIP emphasis: hidden feasible solutions.
MIP search method: dynamic search.
Parallel mode: deterministic, using up to 8 threads.
Root relaxation solution time = 0.01 sec. (7.84 ticks)

        Nodes                                         Cuts/
   Node  Left     Objective  IInf  Best Integer    Best Bound    ItCnt     Gap

      0     0   348385.3466   472                 348385.3466      882         
      0     0   574829.7845   433                   Cuts: 726     4816         
      0     0   828863.4392   699                   Cuts: 726    13525         
*     0+    0                       1.39622e+07   828863.4392            94.06%
*     0+    0                       1.38961e+07   828863.4392            94.04%
      0     0   951765.4630   723   1.38961e+07     Cuts: 726    24309   93.15%
      0     0  1019590.7011   758   1.38961e+07     Cuts: 649    36444   92.66%
      0     0  1069737.1106   734   1.38961e+07     Cuts: 580    48704   92.30%
Detecting symmetries...
      0     0  1093828.1236   803   1.38961e+07     Cuts: 438    61766   92.13%
      0     0  1110846.8385   818   1.38961e+07     Cuts: 360    74924   92.01%
      0     0  1123431.1674   826   1.38961e+07     Cuts: 319    88646   91.92%

GUB cover cuts applied:  0
Cover cuts applied:  10
Flow cuts applied:  743
Mixed integer rounding cuts applied:  476
Flow path cuts applied:  85
Multi commodity flow cuts applied:  40

Root node processing (before b&c):
  Real time             =    5.00 sec. (7114.73 ticks)
Parallel b&c, 8 threads:
  Real time             =    0.00 sec. (0.00 ticks)
  Sync time (average)   =    0.00 sec.
  Wait time (average)   =    0.00 sec.
                          ------------
Total (root+branch&cut) =    5.00 sec. (7114.73 ticks)
Gap: 91.92%
Upper bound: 1.38961e+07
Lower bound: 1.12343e+06
End of CPLEX run. Time: 5.00348 seconds

===== New CPLEX run =====
Instance: /home/yorig/tuner/mpils-tests/instances/miplib/easy/lotsize.mps
Config: /scratch/yorig/mpils-results-grid-seconds-5-no-mip-start/easy/16proc/seed-3/4_lotsize_seed-3_20260502_223218/iterated_local_search/run_3_worker_10/ils_config_17404468496588229708.prm
========================

Selected objective sense:  MINIMIZE
Selected objective  name:  R1921
Selected RHS        name:  B
Selected bound      name:  BOUND
Version identifier: 22.1.2.0 | 2024-11-26 | 0edbb82fd
CPXPARAM_Threads                                 8
CPXPARAM_Parallel                                1
CPXPARAM_MIP_Cuts_Cliques                        -1
CPXPARAM_MIP_Strategy_SubAlgorithm               3
CPXPARAM_MIP_Cuts_Implied                        -1
CPXPARAM_MIP_Cuts_GUBCovers                      -1
CPXPARAM_MIP_Limits_GomoryCand                   150
CPXPARAM_MIP_Cuts_Gomory                         -1
CPXPARAM_MIP_Cuts_MIRCut                         -1
CPXPARAM_Emphasis_MIP                            4
CPXPARAM_MIP_Strategy_BBInterval                 30
CPXPARAM_TimeLimit                               5
CPXPARAM_MIP_Limits_CutsFactor                   1
Tried aggregator 1 time.
MIP Presolve eliminated 595 rows and 0 columns.
MIP Presolve added 1190 rows and 0 columns.
MIP Presolve modified 10 coefficients.
Reduced MIP has 2515 rows, 2985 columns, and 7755 nonzeros.
Reduced MIP has 1195 binaries, 0 generals, 0 SOSs, and 0 indicators.
Presolve time = 0.00 sec. (4.53 ticks)
Probing fixed 0 vars, tightened 5487 bounds.
Probing time = 0.01 sec. (18.38 ticks)
Tried aggregator 2 times.
Detecting symmetries...
MIP Presolve modified 1206 coefficients.
Aggregator did 10 substitutions.
Reduced MIP has 2505 rows, 2975 columns, and 7735 nonzeros.
Reduced MIP has 1195 binaries, 0 generals, 0 SOSs, and 0 indicators.
Presolve time = 0.00 sec. (6.66 ticks)
Probing fixed 0 vars, tightened 2401 bounds.
Probing time = 0.00 sec. (6.41 ticks)
Clique table members: 190.
MIP emphasis: hidden feasible solutions.
MIP search method: dynamic search.
Parallel mode: deterministic, using up to 8 threads.
Root relaxation solution time = 0.01 sec. (7.84 ticks)

        Nodes                                         Cuts/
   Node  Left     Objective  IInf  Best Integer    Best Bound    ItCnt     Gap

      0     0   348385.3466   472                 348385.3466      882         
*     0+    0                       1.10349e+07   348385.3466            96.84%
*     0+    0                      2006556.0000   348385.3466            82.64%
*     0+    0                      1795972.0000   348385.3466            80.60%
      0     0  -1.00000e+75     0  1795972.0000   348385.3466     1520   80.60%
Detecting symmetries...
      0     2   348385.3466   475  1795972.0000   348385.3466     2796   80.60%
Elapsed time = 1.14 sec. (1530.28 ticks, tree = 0.02 MB, solutions = 3)
     76    37   390093.6994   477  1795972.0000   350591.5241    25837   80.48%
    283   220   486480.5663   462  1795972.0000   350591.5241   146802   80.48%
    479   441   458825.7583   478  1795972.0000   350591.5241   295457   80.48%
    683   637   718493.7811   429  1795972.0000   350591.5241   430691   80.48%
    825   764   702672.9270   439  1795972.0000   350591.5241   520960   80.48%
*   871+  720                      1737724.0000   350591.5241            79.82%
    879   816   686705.4141   436  1737724.0000   350591.5241   559706   79.82%
*   883+  720                      1726523.0000   350591.5241            79.69%
    942   869   795547.3334   429  1726523.0000   350591.5241   599253   79.69%
*   959+  720                      1710935.0000   350591.5241            79.51%
*   975+  755                      1698395.0000   350591.5241            79.36%
   1007   954   840487.6424   426  1698395.0000   350591.5241   662113   79.36%
*  1041+  699                      1664481.0000   350591.5241            78.94%
*  1045+  720                      1650797.0000   350591.5241            78.76%
   1061  1014   919218.6287   405  1650797.0000   350591.5241   708252   78.76%
*  1100+  755                      1602290.0000   350591.5241            78.12%
*  1100+  755                      1583883.0000   350591.5241            77.87%
*  1100+  755                      1566736.0000   350591.5241            77.62%
*  1100+  755                      1565448.0000   350591.5241            77.60%
   1100   711   436760.1730   478  1565448.0000   350591.5241   483330   77.60%
Elapsed time = 3.63 sec. (4767.48 ticks, tree = 0.74 MB, solutions = 8)
   1466  1346   853526.7992   410  1565448.0000   350591.5241   956989   77.60%
*  1516+ 1422                      1563144.0000   350591.5241            77.57%
*  1519+ 1422                      1561667.0000   350591.5241            77.55%
*  1521+ 1422                      1561230.0000   350591.5241            77.54%
*  1636+ 1544                      1557990.0000   350591.5241            77.50%
*  1644+ 1507                      1557924.0000   350591.5241            77.50%

Root node processing (before b&c):
  Real time             =    1.13 sec. (1524.36 ticks)
Parallel b&c, 8 threads:
  Real time             =    3.87 sec. (4960.59 ticks)
  Sync time (average)   =    0.52 sec.
  Wait time (average)   =    0.00 sec.
                          ------------
Total (root+branch&cut) =    5.00 sec. (6484.95 ticks)
Gap: 77.5%
Upper bound: 1.55792e+06
Lower bound: 350592
End of CPLEX run. Time: 5.00396 seconds

===== New CPLEX run =====
Instance: /home/yorig/tuner/mpils-tests/instances/miplib/easy/lotsize.mps
Config: /scratch/yorig/mpils-results-grid-seconds-5-no-mip-start/easy/16proc/seed-3/4_lotsize_seed-3_20260502_223218/iterated_local_search/run_3_worker_10/ils_config_8541629471581258281.prm
========================

Selected objective sense:  MINIMIZE
Selected objective  name:  R1921
Selected RHS        name:  B
Selected bound      name:  BOUND
Version identifier: 22.1.2.0 | 2024-11-26 | 0edbb82fd
CPXPARAM_Threads                                 8
CPXPARAM_Parallel                                1
CPXPARAM_MIP_Cuts_Cliques                        -1
CPXPARAM_MIP_Strategy_SubAlgorithm               3
CPXPARAM_MIP_Cuts_Implied                        -1
CPXPARAM_MIP_Cuts_GUBCovers                      -1
CPXPARAM_MIP_Limits_GomoryCand                   150
CPXPARAM_MIP_Cuts_Gomory                         -1
CPXPARAM_MIP_Cuts_MIRCut                         -1
CPXPARAM_Emphasis_MIP                            5
CPXPARAM_MIP_Strategy_BBInterval                 30
CPXPARAM_TimeLimit                               5
CPXPARAM_MIP_Limits_CutsFactor                   1
Tried aggregator 1 time.
MIP Presolve eliminated 595 rows and 0 columns.
MIP Presolve added 1190 rows and 0 columns.
MIP Presolve modified 10 coefficients.
Reduced MIP has 2515 rows, 2985 columns, and 7755 nonzeros.
Reduced MIP has 1195 binaries, 0 generals, 0 SOSs, and 0 indicators.
Presolve time = 0.00 sec. (4.53 ticks)
Probing fixed 0 vars, tightened 5487 bounds.
Probing time = 0.01 sec. (18.38 ticks)
Tried aggregator 2 times.
Detecting symmetries...
MIP Presolve modified 1206 coefficients.
Aggregator did 10 substitutions.
Reduced MIP has 2505 rows, 2975 columns, and 7735 nonzeros.
Reduced MIP has 1195 binaries, 0 generals, 0 SOSs, and 0 indicators.
Presolve time = 0.00 sec. (6.66 ticks)
Probing fixed 0 vars, tightened 2401 bounds.
Probing time = 0.00 sec. (6.41 ticks)
Clique table members: 190.
MIP emphasis: heuristic.
MIP search method: dynamic search.
Parallel mode: deterministic, using up to 8 threads.
Root relaxation solution time = 0.01 sec. (7.84 ticks)

        Nodes                                         Cuts/
   Node  Left     Objective  IInf  Best Integer    Best Bound    ItCnt     Gap

      0     0   348385.3466   472                 348385.3466      882         
*     0+    0                       1.10349e+07   348385.3466            96.84%
*     0+    0                      4675021.0000   348385.3466            92.55%
*     0+    0                      3473844.0000   348385.3466            89.97%
*     0+    0                      3118532.0000   348385.3466            88.83%
*     0+    0                      2980832.0000   348385.3466            88.31%
*     0+    0                      2977571.0000   348385.3466            88.30%
      0     0  -1.00000e+75     0  2977571.0000   348385.3466     1520   88.30%
*     0+    0                      2846153.0000   348385.3466            87.76%
*     0+    0                      2783814.0000   348385.3466            87.49%
*     0+    0                      2780312.0000   348385.3466            87.47%
*     0+    0                      2773960.0000   348385.3466            87.44%
*     0+    0                      2736422.0000   348385.3466            87.27%
*     0+    0                      2526267.0000   348385.3466            86.21%
*     0+    0                      2525493.0000   348385.3466            86.21%
*     0+    0                      2521790.0000   348385.3466            86.18%
*     0+    0                      2425902.0000   348385.3466            85.64%
*     0+    0                      2344533.0000   348385.3466            85.14%
*     0+    0                      2294769.0000   348385.3466            84.82%
*     0+    0                      2287276.0000   348385.3466            84.77%
*     0+    0                      2285358.0000   348385.3466            84.76%
*     0+    0                      2283087.0000   348385.3466            84.74%
*     0+    0                      2272329.0000   348385.3466            84.67%
*     0+    0                      2111543.0000   348385.3466            83.50%
*     0+    0                      2108841.0000   348385.3466            83.48%
*     0+    0                      2101432.0000   348385.3466            83.42%
      0     0  -1.00000e+75     0  2101432.0000   348385.3466     1520   83.42%
*     0+    0                      2062639.0000   348385.3466            83.11%
      0     0  -1.00000e+75     0  2062639.0000   348385.3466     1520   83.11%
Detecting symmetries...
      0     2   348385.3466   475  2062639.0000   348385.3466     2796   83.11%
Elapsed time = 2.37 sec. (3032.77 ticks, tree = 0.02 MB, solutions = 25)
*     8+    1                      2056075.0000   348583.4473            83.05%
*     8+    2                      2042195.0000   348583.4473            82.93%
*     8+    3                      2020618.0000   348583.4473            82.75%
*    10+    3                      1991616.0000   348583.4473            82.50%
    123    94   452895.8420   471  1991616.0000   348693.3349    63093   82.49%
    262   244   444591.7090   475  1991616.0000   348693.3349   162950   82.49%
    393   365   592046.7571   458  1991616.0000   348693.3349   244747   82.49%
    561   502   696596.2472   439  1991616.0000   348693.3349   338710   82.49%
    711   674   694846.0914   450  1991616.0000   348693.3349   460179   82.49%
    833   793   861859.1832   427  1991616.0000   348693.3349   545939   82.49%
    996   872   802950.7375   434  1991616.0000   348693.3349   609852   82.49%
   1184  1036   976638.4502   414  1991616.0000   348693.3349   731588   82.49%
   1321  1262   940682.9402   405  1991616.0000   348693.3349   901374   82.49%

Performing restart 1

Repeating presolve.
Tried aggregator 1 time.
MIP Presolve modified 1143 coefficients.
Reduced MIP has 2505 rows, 2975 columns, and 7735 nonzeros.
Reduced MIP has 1195 binaries, 0 generals, 0 SOSs, and 0 indicators.
Presolve time = 0.00 sec. (3.80 ticks)
Tried aggregator 1 time.
MIP Presolve modified 945 coefficients.
Reduced MIP has 2505 rows, 2975 columns, and 7735 nonzeros.
Reduced MIP has 1195 binaries, 0 generals, 0 SOSs, and 0 indicators.
Presolve time = 0.00 sec. (5.12 ticks)
Represolve time = 0.01 sec. (16.32 ticks)
*  1700+    0                      1954733.0000   348693.3349            82.16%
   1700     0  -1.00000e+75     0  1954733.0000   348693.3349  1241707   82.16%
*  1700+    0                      1904564.0000   348693.3349            81.69%
*  1700+    0                      1902508.0000   348693.3349            81.67%
*  1700+    0                      1900673.0000   348693.3349            81.65%
*  1700+    0                      1850287.0000   348693.3349            81.15%
*  1700+    0                      1848837.0000   348693.3349            81.14%
*  1700+    0                      1848607.0000   348693.3349            81.14%
*  1700+    0                      1776457.0000   348693.3349            80.37%
*  1700+    0                      1748484.0000   348693.3349            80.06%
*  1700+    0                      1748453.0000   348693.3349            80.06%
*  1700+    0                      1747145.0000   348693.3349            80.04%
*  1700+    0                      1745262.0000   348693.3349            80.02%
*  1700+    0                      1734478.0000   348693.3349            79.90%
*  1700+    0                      1663445.0000   348693.3349            79.04%
*  1700+    0                      1650544.0000   348693.3349            78.87%
   1700     0  -1.00000e+75     0  1650544.0000   348693.3349  1241707   78.87%
   1700     0        cutoff        1650544.0000   348693.3349  1241707   78.87%
Elapsed time = 5.00 sec. (7389.69 ticks, tree = 0.01 MB, solutions = 48)

Root node processing (before b&c):
  Real time             =    2.36 sec. (3026.67 ticks)
Parallel b&c, 8 threads:
  Real time             =    2.64 sec. (4364.10 ticks)
  Sync time (average)   =    0.09 sec.
  Wait time (average)   =    0.00 sec.
                          ------------
Total (root+branch&cut) =    5.00 sec. (7390.77 ticks)
Gap: 78.87%
Upper bound: 1.65054e+06
Lower bound: 348693
End of CPLEX run. Time: 5.00461 seconds

===== New CPLEX run =====
Instance: /home/yorig/tuner/mpils-tests/instances/miplib/easy/lotsize.mps
Config: /scratch/yorig/mpils-results-grid-seconds-5-no-mip-start/easy/16proc/seed-3/4_lotsize_seed-3_20260502_223218/iterated_local_search/run_3_worker_10/ils_config_5777295292757149718.prm
========================

Selected objective sense:  MINIMIZE
Selected objective  name:  R1921
Selected RHS        name:  B
Selected bound      name:  BOUND
Version identifier: 22.1.2.0 | 2024-11-26 | 0edbb82fd
CPXPARAM_Threads                                 8
CPXPARAM_Parallel                                1
CPXPARAM_MIP_Cuts_Cliques                        -1
CPXPARAM_MIP_Strategy_SubAlgorithm               3
CPXPARAM_MIP_Cuts_FlowCovers                     2
CPXPARAM_MIP_Cuts_Implied                        -1
CPXPARAM_MIP_Cuts_GUBCovers                      -1
CPXPARAM_MIP_Limits_GomoryCand                   150
CPXPARAM_MIP_Cuts_Gomory                         -1
CPXPARAM_MIP_Cuts_MIRCut                         -1
CPXPARAM_Emphasis_MIP                            4
CPXPARAM_MIP_Strategy_BBInterval                 30
CPXPARAM_TimeLimit                               5
CPXPARAM_MIP_Limits_CutsFactor                   1
Tried aggregator 1 time.
MIP Presolve eliminated 595 rows and 0 columns.
MIP Presolve added 1190 rows and 0 columns.
MIP Presolve modified 10 coefficients.
Reduced MIP has 2515 rows, 2985 columns, and 7755 nonzeros.
Reduced MIP has 1195 binaries, 0 generals, 0 SOSs, and 0 indicators.
Presolve time = 0.00 sec. (4.53 ticks)
Probing fixed 0 vars, tightened 5487 bounds.
Probing time = 0.01 sec. (18.38 ticks)
Tried aggregator 2 times.
Detecting symmetries...
MIP Presolve modified 1206 coefficients.
Aggregator did 10 substitutions.
Reduced MIP has 2505 rows, 2975 columns, and 7735 nonzeros.
Reduced MIP has 1195 binaries, 0 generals, 0 SOSs, and 0 indicators.
Presolve time = 0.00 sec. (6.66 ticks)
Probing fixed 0 vars, tightened 2401 bounds.
Probing time = 0.00 sec. (6.41 ticks)
Clique table members: 190.
MIP emphasis: hidden feasible solutions.
MIP search method: dynamic search.
Parallel mode: deterministic, using up to 8 threads.
Root relaxation solution time = 0.01 sec. (7.84 ticks)

        Nodes                                         Cuts/
   Node  Left     Objective  IInf  Best Integer    Best Bound    ItCnt     Gap

      0     0   348385.3466   472                 348385.3466      882         
*     0+    0                       1.10349e+07   348385.3466            96.84%
*     0+    0                      2006556.0000   348385.3466            82.64%
*     0+    0                      1795972.0000   348385.3466            80.60%
      0     0  -1.00000e+75     0  1795972.0000   348385.3466     1520   80.60%
Detecting symmetries...
      0     2   348385.3466   475  1795972.0000   348385.3466     2796   80.60%
Elapsed time = 1.14 sec. (1530.28 ticks, tree = 0.02 MB, solutions = 3)
     76    37   390093.6994   477  1795972.0000   350591.5241    25837   80.48%
    283   220   486480.5663   462  1795972.0000   350591.5241   146802   80.48%
    479   441   458825.7583   478  1795972.0000   350591.5241   295457   80.48%
    683   637   718493.7811   429  1795972.0000   350591.5241   430691   80.48%
    825   764   702672.9270   439  1795972.0000   350591.5241   520960   80.48%
*   871+  720                      1737724.0000   350591.5241            79.82%
    879   816   686705.4141   436  1737724.0000   350591.5241   559706   79.82%
*   883+  720                      1726523.0000   350591.5241            79.69%
    942   869   795547.3334   429  1726523.0000   350591.5241   599253   79.69%
*   959+  720                      1710935.0000   350591.5241            79.51%
*   975+  755                      1698395.0000   350591.5241            79.36%
   1007   954   840487.6424   426  1698395.0000   350591.5241   662113   79.36%
*  1041+  699                      1664481.0000   350591.5241            78.94%
*  1045+  720                      1650797.0000   350591.5241            78.76%
   1061  1014   919218.6287   405  1650797.0000   350591.5241   708252   78.76%
*  1100+  755                      1602290.0000   350591.5241            78.12%
*  1100+  755                      1583883.0000   350591.5241            77.87%
*  1100+  755                      1566736.0000   350591.5241            77.62%
*  1100+  755                      1565448.0000   350591.5241            77.60%
   1100   711   436760.1730   478  1565448.0000   350591.5241   483330   77.60%
Elapsed time = 3.63 sec. (4767.48 ticks, tree = 0.74 MB, solutions = 8)
   1466  1346   853526.7992   410  1565448.0000   350591.5241   956989   77.60%
*  1516+ 1422                      1563144.0000   350591.5241            77.57%
*  1519+ 1422                      1561667.0000   350591.5241            77.55%
*  1521+ 1422                      1561230.0000   350591.5241            77.54%
*  1636+ 1544                      1557990.0000   350591.5241            77.50%
*  1644+ 1507                      1557924.0000   350591.5241            77.50%

Flow cuts applied:  0

Root node processing (before b&c):
  Real time             =    1.13 sec. (1524.36 ticks)
Parallel b&c, 8 threads:
  Real time             =    3.87 sec. (4970.55 ticks)
  Sync time (average)   =    0.52 sec.
  Wait time (average)   =    0.00 sec.
                          ------------
Total (root+branch&cut) =    5.00 sec. (6494.91 ticks)
Gap: 77.5%
Upper bound: 1.55792e+06
Lower bound: 350592
End of CPLEX run. Time: 5.00387 seconds
